c generated by sgen
p cnf 105 220
-2 -3 -4 0
-1 -3 -4 0
-1 -2 -4 0
-1 -2 -3 0
-6 -7 -8 0
-5 -7 -8 0
-5 -6 -8 0
-5 -6 -7 0
-10 -11 -12 0
-9 -11 -12 0
-9 -10 -12 0
-9 -10 -11 0
-14 -15 -16 0
-13 -15 -16 0
-13 -14 -16 0
-13 -14 -15 0
-18 -19 -20 0
-17 -19 -20 0
-17 -18 -20 0
-17 -18 -19 0
-22 -23 -24 0
-21 -23 -24 0
-21 -22 -24 0
-21 -22 -23 0
-26 -27 -28 0
-25 -27 -28 0
-25 -26 -28 0
-25 -26 -27 0
-30 -31 -32 0
-29 -31 -32 0
-29 -30 -32 0
-29 -30 -31 0
-34 -35 -36 0
-33 -35 -36 0
-33 -34 -36 0
-33 -34 -35 0
-38 -39 -40 0
-37 -39 -40 0
-37 -38 -40 0
-37 -38 -39 0
-42 -43 -44 0
-41 -43 -44 0
-41 -42 -44 0
-41 -42 -43 0
-46 -47 -48 0
-45 -47 -48 0
-45 -46 -48 0
-45 -46 -47 0
-50 -51 -52 0
-49 -51 -52 0
-49 -50 -52 0
-49 -50 -51 0
-54 -55 -56 0
-53 -55 -56 0
-53 -54 -56 0
-53 -54 -55 0
-58 -59 -60 0
-57 -59 -60 0
-57 -58 -60 0
-57 -58 -59 0
-62 -63 -64 0
-61 -63 -64 0
-61 -62 -64 0
-61 -62 -63 0
-66 -67 -68 0
-65 -67 -68 0
-65 -66 -68 0
-65 -66 -67 0
-70 -71 -72 0
-69 -71 -72 0
-69 -70 -72 0
-69 -70 -71 0
-74 -75 -76 0
-73 -75 -76 0
-73 -74 -76 0
-73 -74 -75 0
-78 -79 -80 0
-77 -79 -80 0
-77 -78 -80 0
-77 -78 -79 0
-82 -83 -84 0
-81 -83 -84 0
-81 -82 -84 0
-81 -82 -83 0
-86 -87 -88 0
-85 -87 -88 0
-85 -86 -88 0
-85 -86 -87 0
-90 -91 -92 0
-89 -91 -92 0
-89 -90 -92 0
-89 -90 -91 0
-94 -95 -96 0
-93 -95 -96 0
-93 -94 -96 0
-93 -94 -95 0
-98 -99 -100 0
-97 -99 -100 0
-97 -98 -100 0
-97 -98 -99 0
-101 -102 -103 0
-101 -102 -104 0
-101 -102 -105 0
-101 -103 -104 0
-101 -103 -105 0
-101 -104 -105 0
-102 -103 -104 0
-102 -103 -105 0
-102 -104 -105 0
-103 -104 -105 0
34 81 92 0
67 81 92 0
67 34 92 0
67 34 81 0
16 44 25 0
38 44 25 0
38 16 25 0
38 16 44 0
58 43 105 0
36 43 105 0
36 58 105 0
36 58 43 0
17 94 97 0
83 94 97 0
83 17 97 0
83 17 94 0
32 35 48 0
54 35 48 0
54 32 48 0
54 32 35 0
63 73 53 0
103 73 53 0
103 63 53 0
103 63 73 0
21 8 39 0
78 8 39 0
78 21 39 0
78 21 8 0
85 104 52 0
29 104 52 0
29 85 52 0
29 85 104 0
20 9 40 0
45 9 40 0
45 20 40 0
45 20 9 0
49 13 76 0
23 13 76 0
23 49 76 0
23 49 13 0
19 15 5 0
72 15 5 0
72 19 5 0
72 19 15 0
30 57 69 0
82 57 69 0
82 30 69 0
82 30 57 0
31 55 42 0
18 55 42 0
18 31 42 0
18 31 55 0
96 27 74 0
2 27 74 0
2 96 74 0
2 96 27 0
68 87 60 0
75 87 60 0
75 68 60 0
75 68 87 0
46 86 24 0
70 86 24 0
70 46 24 0
70 46 86 0
62 26 89 0
6 26 89 0
6 62 89 0
6 62 26 0
90 99 28 0
59 99 28 0
59 90 28 0
59 90 99 0
100 14 88 0
12 14 88 0
12 100 88 0
12 100 14 0
7 84 11 0
3 84 11 0
3 7 11 0
3 7 84 0
66 4 37 0
50 4 37 0
50 66 37 0
50 66 4 0
33 95 61 0
22 95 61 0
22 33 61 0
22 33 95 0
71 79 56 0
51 79 56 0
51 71 56 0
51 71 79 0
65 64 80 0
41 64 80 0
41 65 80 0
41 65 64 0
101 93 91 0
10 93 91 0
10 101 91 0
10 101 93 0
47 102 98 0
47 102 1 0
47 102 77 0
47 98 1 0
47 98 77 0
47 1 77 0
102 98 1 0
102 98 77 0
102 1 77 0
98 1 77 0
